id: 1118
name: mzzv11
group: miplib2010
method: 2

Gurobi 7.0.2 (linux64, Matlab) logging started Mon Mar 26 10:15:10 2018


Gurobi 7.0.2 (linux64) logging started Mon Mar 26 10:15:10 2018

Optimize a model with 9499 rows, 10240 columns and 134603 nonzeros
Coefficient statistics:
  Matrix range     [1e+00, 2e+03]
  Objective range  [8e+00, 2e+03]
  Bounds range     [1e+00, 2e+02]
  RHS range        [1e+00, 1e+00]
Presolve removed 777 rows and 932 columns
Presolve time: 0.04s
Presolved: 8722 rows, 9308 columns, 134028 nonzeros

Ordering time: 0.30s

Barrier statistics:
 Dense cols : 15
 AA' NZ     : 5.014e+05
 Factor NZ  : 2.410e+06 (roughly 27 MBytes of memory)
 Factor Ops : 1.005e+09 (less than 1 second per iteration)
 Threads    : 4

                  Objective                Residual
Iter       Primal          Dual         Primal    Dual     Compl     Time
   0   1.16141434e+05 -1.97522182e+06  1.98e+02 8.06e+02  2.86e+03     0s
   1   5.89869921e+04 -2.14806618e+06  9.69e+01 4.30e+02  1.27e+03     1s
   2   2.55315278e+04 -1.84523392e+06  3.57e+01 1.26e+01  4.44e+02     1s
   3   1.79663623e+02 -1.00014169e+06  7.38e+00 7.56e-12  1.05e+02     1s
   4  -6.16271784e+03 -5.04558988e+05  3.01e+00 6.82e-12  4.24e+01     1s
   5  -1.11479325e+04 -2.17369340e+05  1.03e+00 4.68e-12  1.44e+01     1s
   6  -1.43339652e+04 -1.21838229e+05  3.42e-01 8.45e-12  6.00e+00     1s
   7  -1.59166474e+04 -7.49591422e+04  1.76e-01 7.28e-12  3.06e+00     1s
   8  -1.79300428e+04 -5.67127068e+04  6.95e-02 7.48e-12  1.79e+00     1s
   9  -1.94218474e+04 -3.63795916e+04  2.38e-02 4.38e-12  7.38e-01     1s
  10  -2.05554102e+04 -2.80095519e+04  1.19e-02 7.62e-12  3.20e-01     1s
  11  -2.17724002e+04 -2.47546674e+04  4.73e-03 7.89e-12  1.26e-01     1s
  12  -2.23877252e+04 -2.44101882e+04  1.89e-03 9.36e-12  8.38e-02     1s
  13  -2.25676428e+04 -2.38109349e+04  1.23e-03 1.25e-11  5.15e-02     1s
  14  -2.27414121e+04 -2.34558168e+04  5.70e-04 1.44e-11  2.95e-02     1s
  15  -2.27997939e+04 -2.31611048e+04  4.01e-04 2.07e-11  1.50e-02     1s
  16  -2.28779635e+04 -2.30502101e+04  1.81e-04 1.01e-11  7.14e-03     1s
  17  -2.29287548e+04 -2.29789115e+04  3.98e-05 4.59e-12  2.07e-03     1s
  18  -2.29404436e+04 -2.29560543e+04  1.12e-05 1.12e-11  6.42e-04     1s
  19  -2.29445632e+04 -2.29463023e+04  1.22e-06 7.41e-12  7.16e-05     1s
  20  -2.29452068e+04 -2.29453078e+04  3.64e-08 8.69e-12  4.12e-06     1s
  21  -2.29452390e+04 -2.29452402e+04  5.48e-10 3.32e-11  4.70e-08     1s
  22  -2.29452391e+04 -2.29452402e+04  5.88e-08 1.42e-10  4.36e-08     1s
  23  -2.29452394e+04 -2.29452397e+04  4.24e-08 2.15e-10  9.70e-09     1s
  24  -2.29452395e+04 -2.29452397e+04  4.24e-08 2.16e-10  9.70e-09     1s
  25  -2.29452395e+04 -2.29452397e+04  7.73e-07 2.55e-11  9.69e-09     1s
  26  -2.29452395e+04 -2.29452397e+04  7.73e-07 2.37e-10  9.68e-09     1s
  27  -2.29452395e+04 -2.29452397e+04  7.71e-07 1.35e-11  9.67e-09     1s
  28  -2.29452395e+04 -2.29452397e+04  1.17e-06 8.81e-12  9.67e-09     1s
  29  -2.29452395e+04 -2.29452397e+04  1.26e-06 2.96e-11  9.66e-09     1s
  30  -2.29452395e+04 -2.29452397e+04  1.27e-06 5.68e-11  9.66e-09     1s
  31  -2.29452395e+04 -2.29452397e+04  1.28e-06 1.16e-11  9.66e-09     1s
  32  -2.29452395e+04 -2.29452397e+04  1.28e-06 2.07e-11  9.66e-09     1s
  33  -2.29452395e+04 -2.29452397e+04  1.13e-06 1.69e-11  9.61e-09     2s

Barrier performed 33 iterations in 1.53 seconds
Sub-optimal termination - objective -2.29452390e+04

Crossover log...

       0 DPushes remaining with DInf 2.2879476e-11                 2s

    2846 PPushes remaining with PInf 0.0000000e+00                 2s
       0 PPushes remaining with PInf 0.0000000e+00                 2s

  Push phase complete: Pinf 0.0000000e+00, Dinf 3.9250381e-11      2s

Iteration    Objective       Primal Inf.    Dual Inf.      Time
    4130   -2.2945240e+04   0.000000e+00   0.000000e+00      2s
    4130   -2.2945240e+04   0.000000e+00   0.000000e+00      2s

Solved in 4130 iterations and 1.60 seconds
Optimal objective -2.294523963e+04
status: OPTIMAL
